\ Model Transportation Problem with Penalty for Overcapacity
\ LP format - for model browsing. Use MPS format to capture full model detail.
Minimize
  - x[0,0] - x[0,1] - x[0,2] - x[0,3] - x[0,4] - x[0,5] - x[0,6] - x[1,0]
   - x[1,1] - x[1,2] - x[1,3] - x[1,4] - x[1,5] - x[1,6] - x[2,0] - x[2,1]
   - x[2,2] - x[2,3] - x[2,4] - x[2,5] - x[2,6] - x[3,0] - x[3,1] - x[3,2]
   - x[3,3] - x[3,4] - x[3,5] - x[3,6] - x[4,0] - x[4,1] - x[4,2] - x[4,3]
   - x[4,4] - x[4,5] - x[4,6] - x[5,0] - x[5,1] - x[5,2] - x[5,3] - x[5,4]
   - x[5,5] - x[5,6] - x[6,0] - x[6,1] - x[6,2] - x[6,3] - x[6,4] - x[6,5]
   - x[6,6] - x[7,0] - x[7,1] - x[7,2] - x[7,3] - x[7,4] - x[7,5] - x[7,6]
   - x[8,0] - x[8,1] - x[8,2] - x[8,3] - x[8,4] - x[8,5] - x[8,6] - x[9,0]
   - x[9,1] - x[9,2] - x[9,3] - x[9,4] - x[9,5] - x[9,6] + y[0] + y[1]
   + y[2] + y[3] + y[4] + y[5] + y[6]
Subject To
 collection_point_0: x[0,0] + x[0,1] + x[0,2] + x[0,3] + x[0,4] + x[0,5]
   + x[0,6] <= 10
 collection_point_1: x[1,0] + x[1,1] + x[1,2] + x[1,3] + x[1,4] + x[1,5]
   + x[1,6] <= 10
 collection_point_2: x[2,0] + x[2,1] + x[2,2] + x[2,3] + x[2,4] + x[2,5]
   + x[2,6] <= 10
 collection_point_3: x[3,0] + x[3,1] + x[3,2] + x[3,3] + x[3,4] + x[3,5]
   + x[3,6] <= 10
 collection_point_4: x[4,0] + x[4,1] + x[4,2] + x[4,3] + x[4,4] + x[4,5]
   + x[4,6] <= 10
 collection_point_5: x[5,0] + x[5,1] + x[5,2] + x[5,3] + x[5,4] + x[5,5]
   + x[5,6] <= 10
 collection_point_6: x[6,0] + x[6,1] + x[6,2] + x[6,3] + x[6,4] + x[6,5]
   + x[6,6] <= 10
 collection_point_7: x[7,0] + x[7,1] + x[7,2] + x[7,3] + x[7,4] + x[7,5]
   + x[7,6] <= 10
 collection_point_8: x[8,0] + x[8,1] + x[8,2] + x[8,3] + x[8,4] + x[8,5]
   + x[8,6] <= 10
 collection_point_9: x[9,0] + x[9,1] + x[9,2] + x[9,3] + x[9,4] + x[9,5]
   + x[9,6] <= 10
 facility_0: x[0,0] + x[1,0] + x[2,0] + x[3,0] + x[4,0] + x[5,0] + x[6,0]
   + x[7,0] + x[8,0] + x[9,0] - y[0] <= 24.28571428571428
 facility_1: x[0,1] + x[1,1] + x[2,1] + x[3,1] + x[4,1] + x[5,1] + x[6,1]
   + x[7,1] + x[8,1] + x[9,1] - y[1] <= 24.28571428571428
 facility_2: x[0,2] + x[1,2] + x[2,2] + x[3,2] + x[4,2] + x[5,2] + x[6,2]
   + x[7,2] + x[8,2] + x[9,2] - y[2] <= 24.28571428571428
 facility_3: x[0,3] + x[1,3] + x[2,3] + x[3,3] + x[4,3] + x[5,3] + x[6,3]
   + x[7,3] + x[8,3] + x[9,3] - y[3] <= 24.28571428571428
 facility_4: x[0,4] + x[1,4] + x[2,4] + x[3,4] + x[4,4] + x[5,4] + x[6,4]
   + x[7,4] + x[8,4] + x[9,4] - y[4] <= 24.28571428571428
 facility_5: x[0,5] + x[1,5] + x[2,5] + x[3,5] + x[4,5] + x[5,5] + x[6,5]
   + x[7,5] + x[8,5] + x[9,5] - y[5] <= 24.28571428571428
 facility_6: x[0,6] + x[1,6] + x[2,6] + x[3,6] + x[4,6] + x[5,6] + x[6,6]
   + x[7,6] + x[8,6] + x[9,6] - y[6] <= 24.28571428571428
Bounds
End
